00 18 03 25 05 06 16 08 33 00
10 00 00 00 00 00 00 00 00 11  
12 00 00 00 00 00 00 00 00 35  
23 00 00 00 00 00 00 00 00 13  
09 00 00 01 36 00 00 00 00 30  
32 00 00 29 27 00 00 00 00 15  
20 00 00 00 00 00 00 00 00 07  
14 00 00 00 00 00 00 00 00 17  
28 00 00 00 00 00 00 00 00 02  
00 19 26 04 24 34 21 22 31 00